(set-logic ALL)
(set-option :produce-models true)
(declare-sort BoundSet 0)
(declare-sort UnboundSet 0)
(set-option :finite-model-find true)
(declare-fun CanNeverGive (BoundSet BoundSet BoundSet) Bool)
(declare-fun CanGive (BoundSet BoundSet BoundSet) Bool)
(declare-fun WillWalkAllOver (BoundSet BoundSet) Bool)
(assert (not (=> (exists ((b BoundSet)) (exists ((a BoundSet)) (exists ((c BoundSet)) (CanNeverGive a b c)))) (exists ((b BoundSet)) (exists ((d BoundSet)) (exists ((a BoundSet)) (exists ((c BoundSet)) (and (CanGive a b c) (WillWalkAllOver d a)))))))))
(check-sat)
(get-model)